p cnf 42 137
1 2 3 4 5 0
22 23 24 25 26 0
27 28 29 30 31 0
-1 -6 0
-1 -12 0
-1 -17 0
-1 -22 0
-1 -32 0
-1 -35 0
-1 -40 0
-6 -12 0
-6 -17 0
-6 -22 0
-6 -32 0
-6 -35 0
-6 -40 0
-12 -17 0
-12 -22 0
-12 -32 0
-12 -35 0
-12 -40 0
-17 -22 0
-17 -32 0
-17 -35 0
-17 -40 0
-22 -32 0
-22 -35 0
-22 -40 0
-32 -35 0
-32 -40 0
-35 -40 0
-2 -13 0
-2 -18 0
-2 -23 0
-2 -27 0
-2 -36 0
-2 -41 0
-13 -18 0
-13 -23 0
-13 -27 0
-13 -36 0
-13 -41 0
-18 -23 0
-18 -27 0
-18 -36 0
-18 -41 0
-23 -27 0
-23 -36 0
-23 -41 0
-27 -36 0
-27 -41 0
-36 -41 0
-3 -8 0
-3 -19 0
-3 -28 0
-8 -19 0
-8 -28 0
-19 -28 0
-4 -7 0
-4 -9 0
-4 -14 0
-4 -20 0
-4 -24 0
-4 -29 0
-4 -33 0
-4 -37 0
-7 -9 0
-7 -14 0
-7 -20 0
-7 -24 0
-7 -29 0
-7 -33 0
-7 -37 0
-9 -14 0
-9 -20 0
-9 -24 0
-9 -29 0
-9 -33 0
-9 -37 0
-14 -20 0
-14 -24 0
-14 -29 0
-14 -33 0
-14 -37 0
-20 -24 0
-20 -29 0
-20 -33 0
-20 -37 0
-24 -29 0
-24 -33 0
-24 -37 0
-29 -33 0
-29 -37 0
-33 -37 0
-5 -10 0
-5 -15 0
-5 -21 0
-5 -25 0
-5 -30 0
-5 -38 0
-5 -42 0
-10 -15 0
-10 -21 0
-10 -25 0
-10 -30 0
-10 -38 0
-10 -42 0
-15 -21 0
-15 -25 0
-15 -30 0
-15 -38 0
-15 -42 0
-21 -25 0
-21 -30 0
-21 -38 0
-21 -42 0
-25 -30 0
-25 -38 0
-25 -42 0
-30 -38 0
-30 -42 0
-38 -42 0
-11 -16 0
-11 -26 0
-11 -31 0
-11 -34 0
-11 -39 0
-16 -26 0
-16 -31 0
-16 -34 0
-16 -39 0
-26 -31 0
-26 -34 0
-26 -39 0
-31 -34 0
-31 -39 0
-34 -39 0
